NAME :
TYPE : CCVRP
COMMENT :
DIMENSION : 241
CAPACITY : 200
EDGE_WEIGHT_TYPE : EUC_2D_DBL
NODE_COORD_TYPE: TWOD_COORD
NODE_COORD_SECTION
1 0.0000 0.0000
2 5.7735 0.0000
3 2.8867 5.0000
4 -2.8868 5.0000
5 -5.7735 0.0000
6 -2.8867 -5.0000
7 2.8868 -5.0000
8 8.6603 5.0000
9 0.0000 10.0000
10 -8.6603 5.0000
11 -8.6603 -5.0000
12 0.0000 -10.0000
13 8.6603 -5.0000
14 5.3405 0.7500
15 3.3198 4.2500
16 6.4952 -1.2500
17 7.2169 -2.5000
18 7.9386 -3.7500
19 6.4952 1.2500
20 7.2169 2.5000
21 7.9386 3.7500
22 2.0207 5.0000
23 -2.0207 5.0000
24 4.3301 5.0000
25 5.7735 5.0000
26 7.2169 5.0000
27 2.1651 6.2500
28 1.4434 7.5000
29 0.7217 8.7500
30 -3.3198 4.2500
31 -5.3405 0.7500
32 -2.1651 6.2500
33 -1.4434 7.5000
34 -0.7217 8.7500
35 -4.3301 5.0000
36 -5.7735 5.0000
37 -7.2169 5.0000
38 -5.3405 -0.7500
39 -3.3198 -4.2500
40 -6.4952 1.2500
41 -7.2169 2.5000
42 -7.9386 3.7500
43 -6.4952 -1.2500
44 -7.2169 -2.5000
45 -7.9386 -3.7500
46 -2.0207 -5.0000
47 2.0207 -5.0000
48 -4.3301 -5.0000
49 -5.7735 -5.0000
50 -7.2169 -5.0000
51 -2.1651 -6.2500
52 -1.4434 -7.5000
53 -0.7217 -8.7500
54 3.3198 -4.2500
55 5.3405 -0.7500
56 2.1651 -6.2500
57 1.4434 -7.5000
58 0.7217 -8.7500
59 4.3301 -5.0000
60 5.7735 -5.0000
61 7.2169 -5.0000
62 7.2169 0.0000
63 3.6084 6.2500
64 -3.6084 6.2500
65 -7.2169 0.0000
66 -3.6084 -6.2500
67 3.6084 -6.2500
68 10.8253 6.2500
69 0.0000 12.5000
70 -10.8253 6.2500
71 -10.8253 -6.2500
72 0.0000 -12.5000
73 10.8253 -6.2500
74 6.6756 0.9375
75 4.1497 5.3125
76 8.1190 -1.5625
77 9.0211 -3.1250
78 9.9232 -4.6875
79 8.1190 1.5625
80 9.0211 3.1250
81 9.9232 4.6875
82 2.5259 6.2500
83 -2.5259 6.2500
84 5.4127 6.2500
85 7.2169 6.2500
86 9.0211 6.2500
87 2.7063 7.8125
88 1.8042 9.3750
89 0.9021 10.9375
90 -4.1497 5.3125
91 -6.6756 0.9375
92 -2.7063 7.8125
93 -1.8042 9.3750
94 -0.9021 10.9375
95 -5.4127 6.2500
96 -7.2169 6.2500
97 -9.0211 6.2500
98 -6.6756 -0.9375
99 -4.1497 -5.3125
100 -8.1190 1.5625
101 -9.0211 3.1250
102 -9.9232 4.6875
103 -8.1190 -1.5625
104 -9.0211 -3.1250
105 -9.9232 -4.6875
106 -2.5259 -6.2500
107 2.5259 -6.2500
108 -5.4127 -6.2500
109 -7.2169 -6.2500
110 -9.0211 -6.2500
111 -2.7063 -7.8125
112 -1.8042 -9.3750
113 -0.9021 -10.9375
114 4.1497 -5.3125
115 6.6756 -0.9375
116 2.7063 -7.8125
117 1.8042 -9.3750
118 0.9021 -10.9375
119 5.4127 -6.2500
120 7.2169 -6.2500
121 9.0211 -6.2500
122 9.0211 0.0000
123 4.5105 7.8125
124 -4.5105 7.8125
125 -9.0211 0.0000
126 -4.5105 -7.8125
127 4.5106 -7.8125
128 13.5316 7.8125
129 0.0000 15.6250
130 -13.5316 7.8125
131 -13.5316 -7.8125
132 0.0000 -15.6250
133 13.5316 -7.8125
134 8.3445 1.1719
135 5.1871 6.6406
136 10.1487 -1.9531
137 11.2764 -3.9062
138 12.4040 -5.8594
139 10.1487 1.9531
140 11.2764 3.9062
141 12.4040 5.8594
142 3.1574 7.8125
143 -3.1574 7.8125
144 6.7658 7.8125
145 9.0211 7.8125
146 11.2764 7.8125
147 3.3829 9.7656
148 2.2553 11.7187
149 1.1276 13.6719
150 -5.1871 6.6406
151 -8.3445 1.1719
152 -3.3829 9.7656
153 -2.2553 11.7187
154 -1.1276 13.6719
155 -6.7658 7.8125
156 -9.0211 7.8125
157 -11.2764 7.8125
158 -8.3445 -1.1719
159 -5.1871 -6.6406
160 -10.1487 1.9531
161 -11.2764 3.9062
162 -12.4040 5.8594
163 -10.1487 -1.9531
164 -11.2764 -3.9063
165 -12.4040 -5.8594
166 -3.1574 -7.8125
167 3.1574 -7.8125
168 -6.7658 -7.8125
169 -9.0211 -7.8125
170 -11.2764 -7.8125
171 -3.3829 -9.7656
172 -2.2553 -11.7187
173 -1.1276 -13.6719
174 5.1871 -6.6406
175 8.3445 -1.1719
176 3.3829 -9.7656
177 2.2553 -11.7187
178 1.1276 -13.6719
179 6.7658 -7.8125
180 9.0211 -7.8125
181 11.2764 -7.8125
182 11.2764 0.0000
183 5.6382 9.7656
184 -5.6382 9.7656
185 -11.2764 0.0000
186 -5.6382 -9.7656
187 5.6382 -9.7656
188 16.9146 9.7656
189 0.0000 19.5312
190 -16.9146 9.7656
191 -16.9146 -9.7656
192 0.0000 -19.5312
193 16.9146 -9.7656
194 10.4306 1.4648
195 6.4839 8.3008
196 12.6859 -2.4414
197 14.0955 -4.8828
198 15.5050 -7.3242
199 12.6859 2.4414
200 14.0955 4.8828
201 15.5050 7.3242
202 3.9467 9.7656
203 -3.9467 9.7656
204 8.4573 9.7656
205 11.2764 9.7656
206 14.0955 9.7656
207 4.2286 12.2070
208 2.8191 14.6484
209 1.4095 17.0898
210 -6.4839 8.3008
211 -10.4306 1.4648
212 -4.2286 12.2070
213 -2.8191 14.6484
214 -1.4095 17.0898
215 -8.4573 9.7656
216 -11.2764 9.7656
217 -14.0955 9.7656
218 -10.4306 -1.4648
219 -6.4839 -8.3008
220 -12.6859 2.4414
221 -14.0955 4.8828
222 -15.5050 7.3242
223 -12.6859 -2.4414
224 -14.0955 -4.8828
225 -15.5050 -7.3242
226 -3.9467 -9.7656
227 3.9467 -9.7656
228 -8.4573 -9.7656
229 -11.2764 -9.7656
230 -14.0955 -9.7656
231 -4.2286 -12.2070
232 -2.8191 -14.6484
233 -1.4095 -17.0898
234 6.4839 -8.3008
235 10.4306 -1.4648
236 4.2286 -12.2070
237 2.8191 -14.6484
238 1.4095 -17.0898
239 8.4573 -9.7656
240 11.2764 -9.7656
241 14.0955 -9.7656
DEMAND_SECTION
1 0
2 40
3 40
4 40
5 40
6 40
7 40
8 40
9 40
10 40
11 40
12 40
13 40
14 10
15 10
16 10
17 20
18 10
19 10
20 20
21 10
22 10
23 10
24 10
25 20
26 10
27 10
28 20
29 10
30 10
31 10
32 10
33 20
34 10
35 10
36 20
37 10
38 10
39 10
40 10
41 20
42 10
43 10
44 20
45 10
46 10
47 10
48 10
49 20
50 10
51 10
52 20
53 10
54 10
55 10
56 10
57 20
58 10
59 10
60 20
61 10
62 40
63 40
64 40
65 40
66 40
67 40
68 40
69 40
70 40
71 40
72 40
73 40
74 10
75 10
76 10
77 20
78 10
79 10
80 20
81 10
82 10
83 10
84 10
85 20
86 10
87 10
88 20
89 10
90 10
91 10
92 10
93 20
94 10
95 10
96 20
97 10
98 10
99 10
100 10
101 20
102 10
103 10
104 20
105 10
106 10
107 10
108 10
109 20
110 10
111 10
112 20
113 10
114 10
115 10
116 10
117 20
118 10
119 10
120 20
121 10
122 40
123 40
124 40
125 40
126 40
127 40
128 40
129 40
130 40
131 40
132 40
133 40
134 10
135 10
136 10
137 20
138 10
139 10
140 20
141 10
142 10
143 10
144 10
145 20
146 10
147 10
148 20
149 10
150 10
151 10
152 10
153 20
154 10
155 10
156 20
157 10
158 10
159 10
160 10
161 20
162 10
163 10
164 20
165 10
166 10
167 10
168 10
169 20
170 10
171 10
172 20
173 10
174 10
175 10
176 10
177 20
178 10
179 10
180 20
181 10
182 40
183 40
184 40
185 40
186 40
187 40
188 40
189 40
190 40
191 40
192 40
193 40
194 10
195 10
196 10
197 20
198 10
199 10
200 20
201 10
202 10
203 10
204 10
205 20
206 10
207 10
208 20
209 10
210 10
211 10
212 10
213 20
214 10
215 10
216 20
217 10
218 10
219 10
220 10
221 20
222 10
223 10
224 20
225 10
226 10
227 10
228 10
229 20
230 10
231 10
232 20
233 10
234 10
235 10
236 10
237 20
238 10
239 10
240 20
241 10
CLUSTER_SECTION
1 31
2 9
3 6
4 3
5 12
6 15
7 18
8 8
9 5
10 2
11 13
12 17
13 11
14 9
15 6
16 9
17 10
18 10
19 9
20 8
21 8
22 6
23 3
24 6
25 7
26 7
27 6
28 5
29 5
30 3
31 12
32 3
33 4
34 4
35 3
36 2
37 2
38 12
39 15
40 12
41 2
42 2
43 12
44 13
45 13
46 15
47 18
48 15
49 13
50 13
51 15
52 16
53 16
54 18
55 9
56 18
57 17
58 17
59 18
60 11
61 11
62 9
63 6
64 3
65 12
66 15
67 18
68 8
69 5
70 20
71 14
72 17
73 11
74 9
75 7
76 10
77 10
78 11
79 9
80 8
81 8
82 6
83 4
84 7
85 7
86 8
87 6
88 5
89 5
90 3
91 12
92 4
93 4
94 5
95 3
96 2
97 2
98 12
99 15
100 1
101 1
102 2
103 13
104 13
105 14
106 16
107 18
108 15
109 14
110 14
111 16
112 16
113 17
114 19
115 10
116 18
117 17
118 17
119 19
120 11
121 11
122 10
123 7
124 4
125 1
126 16
127 19
128 22
129 28
130 20
131 29
132 26
133 21
134 9
135 7
136 10
137 21
138 21
139 22
140 22
141 22
142 6
143 4
144 7
145 22
146 22
147 23
148 23
149 23
150 3
151 1
152 4
153 23
154 23
155 24
156 20
157 20
158 13
159 15
160 1
161 20
162 20
163 13
164 14
165 14
166 16
167 18
168 25
169 25
170 25
171 16
172 25
173 26
174 19
175 10
176 19
177 26
178 26
179 19
180 27
181 21
182 21
183 23
184 24
185 1
186 25
187 19
188 28
189 30
190 30
191 29
192 30
193 27
194 22
195 7
196 21
197 21
198 27
199 22
200 22
201 28
202 23
203 4
204 28
205 28
206 28
207 23
208 23
209 28
210 24
211 1
212 24
213 24
214 30
215 24
216 24
217 24
218 14
219 25
220 14
221 24
222 29
223 14
224 29
225 29
226 16
227 19
228 25
229 25
230 29
231 25
232 26
233 26
234 19
235 10
236 27
237 26
238 26
239 27
240 27
241 27
DEPOT_SECTION
1
-1
EOF
